
(set-logic ALL) 

(declare-datatype MyList ((Nil) (Cons (head Real) (tail MyList)) )) 
(declare-fun l0 () MyList) 
(declare-fun l1 () MyList) 
(declare-fun l2 () MyList) 
(declare-fun l3 () MyList) 
(declare-fun i0 () Real) 
(declare-fun i1 () Real) 
(assert (is-Nil l2) )
(assert (and (= l1 Nil) (is-Nil Nil) (is-Cons Nil) (= l2 l0)) )
(assert (is-Cons Nil) )
(assert (or (= l1 l2) (= l1 Nil)) )
(assert (is-Nil l3) )
(assert (and (is-Nil Nil) (is-Nil Nil) (is-Cons l1)) )
(assert (not (= l1 Nil)) )
(assert (not (is-Cons l0)) )
(check-sat)
